NAME          
ROWS
 N  OBJ
 L  c1
COLUMNS
    MARKER    'MARKER'                 'INTORG'
    x[1]      c1        642
    x[1]      OBJ       -546
    x[2]      c1        473
    x[2]      OBJ       -443
    x[3]      c1        138
    x[3]      OBJ       -70
    x[4]      c1        1026
    x[4]      OBJ       -945
    x[5]      c1        362
    x[5]      OBJ       -433
    x[6]      c1        673
    x[6]      OBJ       -588
    x[7]      c1        131
    x[7]      OBJ       -118
    x[8]      c1        255
    x[8]      OBJ       -245
    x[9]      c1        928
    x[9]      OBJ       -884
    x[10]     c1        568
    x[10]     OBJ       -586
    x[11]     c1        932
    x[11]     OBJ       -894
    x[12]     c1        686
    x[12]     OBJ       -757
    x[13]     c1        113
    x[13]     OBJ       -20
    x[14]     c1        279
    x[14]     OBJ       -188
    x[15]     c1        851
    x[15]     OBJ       -836
    x[16]     c1        326
    x[16]     OBJ       -394
    x[17]     c1        296
    x[17]     OBJ       -198
    x[18]     c1        993
    x[18]     OBJ       -948
    x[19]     c1        921
    x[19]     OBJ       -899
    x[20]     c1        76
    x[20]     OBJ       -131
    x[21]     c1        414
    x[21]     OBJ       -450
    x[22]     c1        870
    x[22]     OBJ       -877
    x[23]     c1        236
    x[23]     OBJ       -175
    x[24]     c1        74
    x[24]     OBJ       -166
    x[25]     c1        402
    x[25]     OBJ       -386
    x[26]     c1        424
    x[26]     OBJ       -327
    x[27]     c1        292
    x[27]     OBJ       -349
    x[28]     c1        239
    x[28]     OBJ       -315
    x[29]     c1        482
    x[29]     OBJ       -498
    x[30]     c1        201
    x[30]     OBJ       -290
    x[31]     c1        206
    x[31]     OBJ       -170
    x[32]     c1        123
    x[32]     OBJ       -50
    x[33]     c1        608
    x[33]     OBJ       -641
    x[34]     c1        500
    x[34]     OBJ       -545
    x[35]     c1        397
    x[35]     OBJ       -483
    x[36]     c1        374
    x[36]     OBJ       -358
    x[37]     c1        914
    x[37]     OBJ       -826
    x[38]     c1        286
    x[38]     OBJ       -371
    x[39]     c1        326
    x[39]     OBJ       -412
    x[40]     c1        375
    x[40]     OBJ       -467
RHS
    rhs       c1        9206
RANGES
BOUNDS
 BV bounds    x[1]
 BV bounds    x[2]
 BV bounds    x[3]
 BV bounds    x[4]
 BV bounds    x[5]
 BV bounds    x[6]
 BV bounds    x[7]
 BV bounds    x[8]
 BV bounds    x[9]
 BV bounds    x[10]
 BV bounds    x[11]
 BV bounds    x[12]
 BV bounds    x[13]
 BV bounds    x[14]
 BV bounds    x[15]
 BV bounds    x[16]
 BV bounds    x[17]
 BV bounds    x[18]
 BV bounds    x[19]
 BV bounds    x[20]
 BV bounds    x[21]
 BV bounds    x[22]
 BV bounds    x[23]
 BV bounds    x[24]
 BV bounds    x[25]
 BV bounds    x[26]
 BV bounds    x[27]
 BV bounds    x[28]
 BV bounds    x[29]
 BV bounds    x[30]
 BV bounds    x[31]
 BV bounds    x[32]
 BV bounds    x[33]
 BV bounds    x[34]
 BV bounds    x[35]
 BV bounds    x[36]
 BV bounds    x[37]
 BV bounds    x[38]
 BV bounds    x[39]
 BV bounds    x[40]
ENDATA
